
Gurobi 8.1.1 (win64) logging started 07/06/20 09:02:28

Changed value of parameter LogFile to Results/sslp1_50_40_200_BendersBnC.log
   Prev: gurobi.log  Default: 
Changed value of parameter Heuristics to 0.0
   Prev: 0.05  Min: 0.0  Max: 1.0  Default: 0.05
Changed value of parameter lazyConstraints to 1
   Prev: 0  Min: 0  Max: 1  Default: 0
Changed value of parameter timeLimit to 7173.483879327774
   Prev: 1e+100  Min: 0.0  Max: 1e+100  Default: 1e+100
Optimize a model with 3063 rows, 250 columns and 95860 nonzeros
Variable types: 200 continuous, 50 integer (50 binary)
Coefficient statistics:
  Matrix range     [2e-13, 7e+05]
  Objective range  [5e-03, 8e+01]
  Bounds range     [1e+00, 1e+00]
  RHS range        [1e-13, 9e+03]
Warning: Model contains large matrix coefficient range
         Consider reformulating model or setting NumericFocus parameter
         to avoid numerical issues.
Presolve removed 280 rows and 0 columns
Presolve time: 0.08s
Presolved: 2783 rows, 250 columns, 92245 nonzeros
Variable types: 200 continuous, 50 integer (50 binary)

Root relaxation: objective -4.412802e+02, 561 iterations, 0.11 seconds

    Nodes    |    Current Node    |     Objective Bounds      |     Work
 Expl Unexpl |  Obj  Depth IntInf | Incumbent    BestBd   Gap | It/Node Time

     0     0 -441.28017    0   17          - -441.28017      -     -    0s
     0     0 -441.09088    0   16          - -441.09088      -     -    0s
     0     0 -440.95582    0   16          - -440.95582      -     -    0s
     0     0 -440.85435    0   16          - -440.85435      -     -    0s
     0     0 -440.77699    0   16          - -440.77699      -     -    0s
     0     0 -440.68747    0   15          - -440.68747      -     -    0s
     0     0 -440.61971    0   16          - -440.61971      -     -    0s
     0     0 -440.56393    0   16          - -440.56393      -     -    0s
     0     0 -440.50165    0   16          - -440.50165      -     -    0s
     0     0 -440.44354    0   16          - -440.44354      -     -    0s
     0     0 -440.40361    0   16          - -440.40361      -     -    0s
     0     0 -440.34935    0   16          - -440.34935      -     -    0s
     0     0 -440.27294    0   15          - -440.27294      -     -    0s
     0     0 -440.22743    0   16          - -440.22743      -     -    0s
     0     0 -440.19898    0   16          - -440.19898      -     -    0s
     0     0 -440.16783    0   16          - -440.16783      -     -    0s
     0     0 -440.11785    0   16          - -440.11785      -     -    0s
     0     0 -440.08628    0   15          - -440.08628      -     -    0s
     0     0 -440.04351    0   16          - -440.04351      -     -    0s
     0     0 -440.00133    0   16          - -440.00133      -     -    0s
     0     0 -439.95699    0   16          - -439.95699      -     -    0s
     0     0 -439.91720    0   16          - -439.91720      -     -    0s
     0     0 -439.88481    0   16          - -439.88481      -     -    0s
     0     0 -439.84835    0   17          - -439.84835      -     -    0s
     0     0 -439.81458    0   17          - -439.81458      -     -    0s
     0     0 -439.78127    0   17          - -439.78127      -     -    0s
     0     0 -439.75170    0   17          - -439.75170      -     -    0s
     0     0 -439.74055    0   17          - -439.74055      -     -    1s
     0     0 -439.71229    0   17          - -439.71229      -     -    1s
     0     0 -439.68677    0   17          - -439.68677      -     -    1s
     0     0 -439.64994    0   17          - -439.64994      -     -    1s
     0     0 -439.63007    0   17          - -439.63007      -     -    1s
     0     0 -439.60040    0   17          - -439.60040      -     -    1s
     0     0 -439.57475    0   16          - -439.57475      -     -    1s
     0     0 -439.54097    0   17          - -439.54097      -     -    1s
     0     0 -439.49920    0   16          - -439.49920      -     -    1s
     0     0 -439.46976    0   17          - -439.46976      -     -    1s
     0     0 -439.42155    0   16          - -439.42155      -     -    1s
     0     0 -439.40278    0   16          - -439.40278      -     -    1s
     0     0 -439.37492    0   16          - -439.37492      -     -    1s
     0     0 -439.34370    0   16          - -439.34370      -     -    1s
     0     0 -439.30922    0   15          - -439.30922      -     -    1s
     0     0 -439.29534    0   15          - -439.29534      -     -    1s
     0     0 -439.26949    0   15          - -439.26949      -     -    1s
     0     0 -439.23906    0   15          - -439.23906      -     -    1s
     0     0 -439.21998    0   15          - -439.21998      -     -    1s
     0     0 -439.20304    0   15          - -439.20304      -     -    1s
     0     0 -439.17011    0   15          - -439.17011      -     -    1s
     0     0 -439.15374    0   15          - -439.15374      -     -    1s
     0     0 -439.13089    0   15          - -439.13089      -     -    1s
     0     0 -439.09826    0   14          - -439.09826      -     -    1s
     0     0 -439.07616    0   14          - -439.07616      -     -    1s
     0     0 -439.04668    0   14          - -439.04668      -     -    1s
     0     0 -439.03300    0   15          - -439.03300      -     -    1s
     0     0 -439.01986    0   14          - -439.01986      -     -    1s
     0     0 -439.00176    0   14          - -439.00176      -     -    1s
     0     0 -438.98752    0   14          - -438.98752      -     -    1s
     0     0 -438.96716    0   14          - -438.96716      -     -    1s
     0     0 -438.94387    0   14          - -438.94387      -     -    1s
     0     0 -438.91540    0   14          - -438.91540      -     -    1s
     0     0 -438.90701    0   15          - -438.90701      -     -    1s
     0     0 -438.88803    0   15          - -438.88803      -     -    1s
     0     0 -438.86633    0   15          - -438.86633      -     -    1s
     0     0 -438.84245    0   15          - -438.84245      -     -    1s
     0     0 -438.83519    0   14          - -438.83519      -     -    1s
     0     0 -438.80826    0   15          - -438.80826      -     -    1s
     0     0 -438.78674    0   14          - -438.78674      -     -    1s
     0     0 -438.75171    0   14          - -438.75171      -     -    1s
     0     0 -438.71993    0   14          - -438.71993      -     -    1s
     0     0 -438.70695    0   14          - -438.70695      -     -    1s
     0     0 -438.69281    0   14          - -438.69281      -     -    1s
     0     0 -438.66402    0   15          - -438.66402      -     -    1s
     0     0 -438.64002    0   14          - -438.64002      -     -    1s
     0     0 -438.63745    0   14          - -438.63745      -     -    1s
     0     0 -438.61207    0   13          - -438.61207      -     -    1s
     0     0 -438.59307    0   13          - -438.59307      -     -    1s
     0     0 -438.57671    0   12          - -438.57671      -     -    1s
     0     0 -438.55912    0   12          - -438.55912      -     -    1s
     0     0 -438.53930    0   12          - -438.53930      -     -    1s
     0     0 -438.52369    0   11          - -438.52369      -     -    1s
     0     0 -438.49994    0   15          - -438.49994      -     -    1s
     0     0 -438.47888    0   14          - -438.47888      -     -    1s
     0     0 -438.46196    0   14          - -438.46196      -     -    1s
     0     0 -438.44658    0   12          - -438.44658      -     -    1s
     0     0 -438.43489    0   13          - -438.43489      -     -    2s
     0     0 -438.41975    0   14          - -438.41975      -     -    2s
     0     0 -438.40088    0   15          - -438.40088      -     -    2s
     0     0 -438.37212    0   13          - -438.37212      -     -    2s
     0     0 -438.36179    0   13          - -438.36179      -     -    2s
     0     0 -438.35339    0   13          - -438.35339      -     -    2s
     0     0 -438.34056    0   13          - -438.34056      -     -    2s
     0     0 -438.32467    0   13          - -438.32467      -     -    2s
     0     0 -438.30390    0   11          - -438.30390      -     -    2s
     0     0 -438.28842    0   12          - -438.28842      -     -    2s
     0     0 -438.28649    0   13          - -438.28649      -     -    2s
     0     0 -438.27299    0   14          - -438.27299      -     -    2s
     0     0 -438.25375    0   12          - -438.25375      -     -    2s
     0     0 -438.24439    0   12          - -438.24439      -     -    2s
     0     0 -438.23984    0   14          - -438.23984      -     -    2s
     0     0 -438.23030    0   13          - -438.23030      -     -    2s
     0     0 -438.22644    0   13          - -438.22644      -     -    2s
     0     0 -438.20744    0   13          - -438.20744      -     -    2s
     0     0 -438.19737    0   13          - -438.19737      -     -    2s
     0     0 -438.18702    0   12          - -438.18702      -     -    2s
     0     0 -438.18533    0   13          - -438.18533      -     -    2s
     0     0 -438.18133    0   14          - -438.18133      -     -    2s
     0     0 -438.17400    0   13          - -438.17400      -     -    2s
     0     0 -438.17075    0   14          - -438.17075      -     -    2s
     0     0 -438.15721    0   14          - -438.15721      -     -    2s
     0     0 -438.15446    0   15          - -438.15446      -     -    2s
     0     0 -438.13935    0   14          - -438.13935      -     -    2s
     0     0 -438.11944    0   13          - -438.11944      -     -    2s
     0     0 -438.11214    0   14          - -438.11214      -     -    2s
     0     0 -438.10431    0   14          - -438.10431      -     -    2s
     0     0 -438.09645    0   14          - -438.09645      -     -    2s
     0     0 -438.09044    0   12          - -438.09044      -     -    2s
     0     0 -438.08315    0   12          - -438.08315      -     -    2s
     0     0 -438.07908    0   13          - -438.07908      -     -    2s
     0     0 -438.07526    0   13          - -438.07526      -     -    2s
     0     0 -438.07273    0   11          - -438.07273      -     -    2s
     0     0 -438.05815    0   12          - -438.05815      -     -    2s
     0     0 -438.04465    0   13          - -438.04465      -     -    2s
     0     0 -438.03976    0   13          - -438.03976      -     -    2s
     0     0 -438.03241    0   14          - -438.03241      -     -    2s
     0     0 -438.01786    0   13          - -438.01786      -     -    2s
     0     0 -438.01675    0   13          - -438.01675      -     -    2s
     0     0 -438.00950    0   11          - -438.00950      -     -    2s
     0     0 -438.00564    0   13          - -438.00564      -     -    2s
     0     0 -438.00376    0   14          - -438.00376      -     -    2s
     0     0 -437.99819    0   12          - -437.99819      -     -    2s
     0     0 -437.99556    0   12          - -437.99556      -     -    2s
     0     0 -437.96496    0   12          - -437.96496      -     -    2s
     0     0 -437.94959    0   12          - -437.94959      -     -    2s
     0     0 -437.93467    0   11          - -437.93467      -     -    2s
     0     0 -437.93445    0   12          - -437.93445      -     -    2s
     0     0 -437.92319    0   11          - -437.92319      -     -    2s
     0     0 -437.92171    0   12          - -437.92171      -     -    2s
     0     0 -437.91704    0   12          - -437.91704      -     -    2s
     0     0 -437.91444    0   12          - -437.91444      -     -    2s
     0     0 -437.91437    0   12          - -437.91437      -     -    3s
     0     0 -437.89495    0   12          - -437.89495      -     -    3s
     0     0 -437.88140    0   13          - -437.88140      -     -    3s
     0     0 -437.87845    0   12          - -437.87845      -     -    3s
     0     0 -437.87094    0   13          - -437.87094      -     -    3s
     0     0 -437.86662    0   14          - -437.86662      -     -    3s
     0     0 -437.85749    0   12          - -437.85749      -     -    3s
     0     0 -437.84646    0   12          - -437.84646      -     -    3s
     0     0 -437.84405    0   13          - -437.84405      -     -    3s
     0     0 -437.83800    0   14          - -437.83800      -     -    3s
     0     0 -437.82840    0   13          - -437.82840      -     -    3s
     0     0 -437.81718    0   13          - -437.81718      -     -    3s
     0     0 -437.81091    0   13          - -437.81091      -     -    3s
     0     0 -437.80643    0   13          - -437.80643      -     -    3s
     0     0 -437.79389    0   12          - -437.79389      -     -    3s
     0     0 -437.78510    0   13          - -437.78510      -     -    3s
     0     0 -437.78336    0   14          - -437.78336      -     -    3s
     0     0 -437.77667    0   11          - -437.77667      -     -    3s
     0     0 -437.77358    0   12          - -437.77358      -     -    3s
     0     0 -437.77097    0   12          - -437.77097      -     -    3s
     0     0 -437.76770    0   13          - -437.76770      -     -    3s
     0     0 -437.76201    0   12          - -437.76201      -     -    3s
     0     0 -437.75838    0   13          - -437.75838      -     -    3s
     0     0 -437.75700    0    9          - -437.75700      -     -    3s
     0     0 -437.74924    0   11          - -437.74924      -     -    3s
     0     0 -437.74652    0   12          - -437.74652      -     -    3s
     0     0 -437.74600    0   13          - -437.74600      -     -    3s
     0     0 -437.74414    0   13          - -437.74414      -     -    3s
     0     0 -437.74175    0   12          - -437.74175      -     -    3s
     0     0 -437.74062    0   11          - -437.74062      -     -    3s
     0     0 -437.74036    0   12          - -437.74036      -     -    3s
     0     0 -437.73033    0   12          - -437.73033      -     -    3s
     0     0 -437.72809    0   12          - -437.72809      -     -    3s
     0     0 -437.72339    0   12          - -437.72339      -     -    3s
     0     0 -437.72094    0   11          - -437.72094      -     -    3s
     0     0 -437.71745    0   12          - -437.71745      -     -    3s
     0     0 -437.71649    0   12          - -437.71649      -     -    3s
     0     0 -437.71554    0   13          - -437.71554      -     -    3s
     0     0 -437.70950    0   10          - -437.70950      -     -    3s
     0     0 -437.70648    0   10          - -437.70648      -     -    3s
     0     0 -437.70360    0   11          - -437.70360      -     -    3s
     0     0 -437.70204    0   11          - -437.70204      -     -    3s
     0     0 -437.69464    0   10          - -437.69464      -     -    3s
     0     0 -437.69070    0   10          - -437.69070      -     -    3s
     0     0 -437.69010    0    9          - -437.69010      -     -    3s
     0     0 -437.68328    0   12          - -437.68328      -     -    4s
     0     0 -437.68134    0   12          - -437.68134      -     -    4s
     0     0 -437.67279    0   10          - -437.67279      -     -    4s
     0     0 -437.66779    0   10          - -437.66779      -     -    4s
     0     0 -437.66338    0   10          - -437.66338      -     -    4s
     0     0 -437.65716    0   12          - -437.65716      -     -    4s
     0     0 -437.65542    0   11          - -437.65542      -     -    4s
     0     0 -437.65471    0   11          - -437.65471      -     -    4s
     0     0 -437.64530    0   11          - -437.64530      -     -    4s
     0     0 -437.64402    0   11          - -437.64402      -     -    4s
     0     0 -437.64393    0   11          - -437.64393      -     -    4s
     0     0 -437.64248    0   10          - -437.64248      -     -    4s
     0     0 -437.64215    0    8          - -437.64215      -     -    4s
     0     0 -437.63058    0   11          - -437.63058      -     -    4s
     0     0 -437.62612    0   12          - -437.62612      -     -    4s
     0     0 -437.62307    0   10          - -437.62307      -     -    4s
     0     0 -437.62130    0   11          - -437.62130      -     -    4s
     0     0 -437.61680    0    8          - -437.61680      -     -    4s
     0     0 -437.61671    0    8          - -437.61671      -     -    4s
     0     0 -437.60812    0   10          - -437.60812      -     -    4s
     0     0 -437.60797    0    9          - -437.60797      -     -    4s
     0     0 -437.60390    0    9          - -437.60390      -     -    4s
     0     0 -437.60376    0    9          - -437.60376      -     -    4s
     0     0 -437.60341    0    9          - -437.60341      -     -    4s
     0     0 -437.60341    0    9          - -437.60341      -     -    4s
     0     2 -437.60341    0    9          - -437.60341      -     -    4s
     3     5 -436.99252    2   17          - -437.53596      -  70.7    6s
    29    28 -433.38250   13   13          - -437.39108      -  69.6   10s
    44    40 -430.50053   19   13          - -437.39108      -  75.2   15s
    64    55 -428.94981   26    9          - -437.39108      -  71.0   20s
    80    71 -426.55223   31    7          - -437.39108      -  70.0   26s
    93    79 -424.66953   37    5          - -437.39108      -  68.0   31s
   106    86 -414.98216   42    -          - -437.39108      -  66.7   37s
   114    92 -391.59524   43    -          - -437.39108      -  69.7   40s
   126   103 -306.74353   40    2          - -437.39108      -  70.1   45s
   134   104 -372.22356   49    -          - -436.80039      -  70.2   51s
*  140   108              50    5109.8848858 -436.80039   109%  71.9   54s
*  145   103              50    -242.5549927 -436.76030  80.1%  74.3   58s
   152   109     cutoff   50      -242.55499 -436.56048  80.0%  75.5   67s
   157   114 -396.40788    5    6 -242.55499 -436.56048  80.0%  78.1   70s
   172   120 -393.95286   11    5 -242.55499 -436.56048  80.0%  76.4   76s
   176   124 -392.52882   13    6 -242.55499 -436.56048  80.0%  76.3   80s
   182   128 -293.81101   48    - -242.55499 -436.56048  80.0%  76.8   87s
   201   139 -343.94180   23    3 -242.55499 -436.56048  80.0%  77.2   93s
   207   139 -383.82122   24    - -242.55499 -436.56048  80.0%  77.5   97s
   218   147 -340.85355   22    1 -242.55499 -436.56048  80.0%  78.7  101s
   232   159 -378.98255   28    - -242.55499 -436.56048  80.0%  78.0  105s
   246   169 -391.07405   21    3 -242.55499 -436.56048  80.0%  76.9  111s
   257   178 -386.15787   22    - -242.55499 -436.56048  80.0%  77.1  115s
   263   177 -375.63915   36    - -242.55499 -436.56048  80.0%  76.9  122s
   268   181 -313.30332   36    - -242.55499 -436.56048  80.0%  77.4  126s
   275   186 -310.82854   36    2 -242.55499 -436.56048  80.0%  76.6  130s
   281   190 -310.59096   38    - -242.55499 -436.56048  80.0%  76.5  137s
   289   191 -306.50409   38    - -242.55499 -436.56048  80.0%  76.2  145s
   296   196 -378.10132   35    - -242.55499 -436.56048  80.0%  76.4  151s
   303   195 -309.17435   40    - -242.55499 -436.56048  80.0%  76.6  160s
   309   203 -375.08843   35    5 -242.55499 -436.56048  80.0%  76.0  165s
   322   205 -304.11524   42    - -242.55499 -436.56048  80.0%  75.5  171s
   330   213 -365.96242   44    5 -242.55499 -436.56048  80.0%  74.6  182s
   342   220 -362.46367   47    - -242.55499 -436.56048  80.0%  73.9  192s
   347   220 -358.70150   48    - -242.55499 -436.56048  80.0%  74.3  196s
   352   221 -297.09876   48    1 -242.55499 -436.56048  80.0%  75.2  200s
   358   226 -309.72755   48    2 -242.55499 -436.56048  80.0%  75.1  209s
   359   223 -287.64122   47    3 -242.55499 -436.56048  80.0%  75.3  210s
   368   219     cutoff   49      -242.55499 -436.56048  80.0%  76.0  217s
   373   222 -296.35468   48    - -242.55499 -436.56048  80.0%  76.3  220s
   378   217     cutoff   48      -242.55499 -435.32138  79.5%  76.4  226s
   382   220     cutoff   48      -242.55499 -435.32138  79.5%  77.0  230s
   387   221 -390.30787    8    - -242.55499 -434.97565  79.3%  78.1  237s
   390   223 -295.93280   47    - -242.55499 -434.97565  79.3%  78.1  241s
   398   225 -290.64140   47    - -242.55499 -434.97565  79.3%  78.4  249s
   401   225 -350.84402   12    - -242.55499 -434.97565  79.3%  78.7  254s
   409   232 -263.68469   47    3 -242.55499 -434.97565  79.3%  78.8  259s
   410   228 -349.12496   16    - -242.55499 -434.97565  79.3%  78.8  262s
   418   236     cutoff   48      -242.55499 -434.97565  79.3%  78.4  267s
   420   232 -347.96457   20    - -242.55499 -434.97565  79.3%  78.3  271s
   426   239 -289.97203   46    - -242.55499 -434.97565  79.3%  78.0  276s
   436   242 -392.04217   16    - -242.55499 -434.97565  79.3%  78.5  286s
   439   244 -336.07040   27    - -242.55499 -434.97565  79.3%  78.4  291s
   448   245 -334.21895   29    - -242.55499 -434.97565  79.3%  78.1  297s
   458   250 -271.33518   32    4 -242.55499 -432.73195  78.4%  77.5  306s
   473   255     cutoff   35      -242.55499 -432.73195  78.4%  77.2  322s
   486   266 -267.39613   36    2 -242.55499 -432.65090  78.4%  76.7  330s
   493   260 -266.39078   37    - -242.55499 -431.84654  78.0%  76.7  339s
   504   266 -263.69932   37    3 -242.55499 -431.36864  77.8%  77.0  345s
   516   269 -261.89817   39    2 -242.55499 -431.36864  77.8%  76.7  355s
   525   275 -260.36850   40    8 -242.55499 -431.36864  77.8%  76.3  361s
   533   273 -260.29304   41    - -242.55499 -431.36864  77.8%  75.7  370s
   542   275 -259.62096   42    - -242.55499 -431.36864  77.8%  75.4  378s
   550   278 -259.31164   44    - -242.55499 -431.36864  77.8%  74.8  389s
   554   282     cutoff   38      -242.55499 -431.36864  77.8%  74.8  390s
   563   281     cutoff   47      -242.55499 -429.89193  77.2%  75.0  397s
   574   285 -389.04943   18    - -242.55499 -429.89193  77.2%  74.5  404s
   585   283 -387.38277   22    2 -242.55499 -429.27857  77.0%  74.1  408s
   595   291 -391.30247   25    4 -242.55499 -429.16290  76.9%  73.9  417s
   603   299 -388.92433   29    6 -242.55499 -429.16290  76.9%  73.7  421s
   620   313 -377.35049   35    8 -242.55499 -429.16290  76.9%  73.5  428s
   629   318 -376.35050   37    8 -242.55499 -429.16290  76.9%  73.4  433s
   637   323 -374.42981   39    8 -242.55499 -429.16290  76.9%  73.5  441s
   647   332 -372.98450   41    7 -242.55499 -429.16290  76.9%  73.6  448s
   655   337 -371.55437   43    4 -242.55499 -429.16290  76.9%  73.7  452s
   665   347 -365.41506   46    4 -242.55499 -429.16290  76.9%  73.7  457s
   671   352 -320.03453   31    3 -242.55499 -429.16290  76.9%  73.7  461s
   677   348 -344.10381   49    1 -242.55499 -429.16290  76.9%  73.8  466s
   686   357 -262.86589   30    3 -242.55499 -429.16290  76.9%  74.3  477s
   690   356     cutoff   50      -242.55499 -428.83798  76.8%  74.4  481s
*  692   353              50    -253.1399923 -428.83798  69.4%  74.7  483s
*  695   352              50    -255.8949923 -428.83798  67.6%  75.0  484s
   708   359     cutoff   50      -255.89499 -428.74143  67.5%  75.2  490s
   719   365 -391.88112   29    4 -255.89499 -428.74143  67.5%  75.3  499s
   731   371 -378.59418   35    6 -255.89499 -428.74143  67.5%  75.4  504s
   733   373 -364.78952   48    - -255.89499 -428.74143  67.5%  75.3  506s
   738   374 -377.03595   37    6 -255.89499 -428.74143  67.5%  75.4  515s
   747   380 -374.46647   39    8 -255.89499 -428.74143  67.5%  75.9  525s
   760   382 -370.67219   44    4 -255.89499 -428.74143  67.5%  76.3  536s
   766   390 -321.73984   46    3 -255.89499 -426.36739  66.6%  76.7  541s
   776   397 -382.96108   22    6 -255.89499 -426.36739  66.6%  76.4  548s
   780   389     cutoff   49      -255.89499 -425.02766  66.1%  76.4  550s
   792   393     cutoff   49      -255.89499 -424.99207  66.1%  76.3  565s
   806   398     cutoff   48      -255.89499 -423.52747  65.5%  76.3  578s
   818   406 -383.22474   39    7 -255.89499 -423.24788  65.4%  76.5  592s
   831   414 -379.65652   42    6 -255.89499 -423.24788  65.4%  76.4  601s
   838   420 -373.59245   46    4 -255.89499 -423.24788  65.4%  76.3  606s
   848   419 -342.61845   46    - -255.89499 -423.17584  65.4%  76.6  617s
   863   423     cutoff   50      -255.89499 -422.27849  65.0%  77.3  632s
   875   427     cutoff   50      -255.89499 -419.54050  64.0%  77.8  643s
   880   433 -375.72145   36    4 -255.89499 -417.53443  63.2%  78.4  645s
   891   433 -374.35005   41    2 -255.89499 -416.84805  62.9%  78.3  656s
   899   438 -371.32976   42    2 -255.89499 -416.75584  62.9%  78.5  666s
   906   445 -375.83350   27    6 -255.89499 -416.75584  62.9%  78.4  673s
   911   445 -341.32431   44    2 -255.89499 -415.82894  62.5%  78.9  679s
   923   453 -390.82580   46    - -255.89499 -415.82894  62.5%  78.7  692s
   929   459 -359.75422   48    - -255.89499 -410.52021  60.4%  78.8  697s
   941   459     cutoff   50      -255.89499 -408.12951  59.5%  79.3  703s
   952   469 -358.68302   40    9 -255.89499 -408.12951  59.5%  79.4  716s
   962   471 -355.46173   43    7 -255.89499 -401.82318  57.0%  79.6  723s
   966   467     cutoff   49      -255.89499 -401.19529  56.8%  79.6  727s
   991   467     cutoff   50      -255.89499 -400.92552  56.7%  79.5  745s
  1008   482 -285.53130   49    1 -255.89499 -400.92552  56.7%  79.1  755s
  1025   476     cutoff   50      -255.89499 -400.74703  56.6%  79.1  771s
  1043   492 -397.14418   11    3 -255.89499 -399.86781  56.3%  78.8  783s
  1052   500 -361.20255    6    5 -255.89499 -399.86781  56.3%  78.8  786s
  1066   511 -392.35860   18    3 -255.89499 -399.86781  56.3%  78.5  797s
  1088   523 -387.04695   24    4 -255.89499 -399.86781  56.3%  78.4  811s
  1108   542 -381.63735   31    3 -255.89499 -399.86781  56.3%  78.6  828s
  1122   552 -377.49278   36    4 -255.89499 -399.86781  56.3%  78.9  839s
  1146   558 -369.32652   44    4 -255.89499 -399.60608  56.2%  78.2  855s
  1166   572     cutoff   50      -255.89499 -399.10626  56.0%  78.2  878s
  1181   581 -272.70305   36    - -255.89499 -398.66914  55.8%  78.3  891s
  1188   573     cutoff   50      -255.89499 -398.59944  55.8%  78.3  905s
  1218   592 -351.75026   18    - -255.89499 -398.45022  55.7%  77.9  934s
  1239   610 -268.84255   38    - -255.89499 -398.45022  55.7%  77.5  947s
  1242   607 -341.20236   32    - -255.89499 -398.18355  55.6%  77.7  957s
  1266   618 -280.42271   32    2 -255.89499 -398.18355  55.6%  77.4  976s
  1282   638 -328.53867   42    7 -255.89499 -398.18355  55.6%  76.9  991s
  1286   637 -271.27308   39    - -255.89499 -398.18355  55.6%  77.0 1000s
  1300   638 -328.03630   47    - -255.89499 -398.02953  55.5%  76.8 1014s
  1312   649 -265.28610   46    - -255.89499 -398.02953  55.5%  76.8 1030s
* 1316   628              50    -272.5599919 -398.02953  46.0%  76.9 1032s
  1318   620 -300.45458   47    3 -272.55999 -398.02953  46.0%  77.1 1039s
  1326   625     cutoff   49      -272.55999 -397.30916  45.8%  77.2 1049s
  1334   627     cutoff   48      -272.55999 -397.02658  45.7%  77.3 1051s
  1352   629 -361.44139    6    6 -272.55999 -397.02658  45.7%  77.1 1068s
  1382   649 -354.35430   15    - -272.55999 -397.02658  45.7%  76.4 1098s
  1413   666 -348.77211   23    - -272.55999 -397.02658  45.7%  75.9 1126s
  1435   679 -342.95095   31    - -272.55999 -397.02658  45.7%  75.8 1148s
  1444   689 -330.08321   39    3 -272.55999 -397.02658  45.7%  75.7 1152s
  1454   686 -338.28146   37    3 -272.55999 -397.02658  45.7%  75.5 1171s
  1472   701 -327.26711   42    2 -272.55999 -397.02658  45.7%  75.1 1182s
  1481   694 -325.86450   49    - -272.55999 -396.69539  45.5%  75.2 1202s
* 1484   678              50    -289.5699915 -396.69539  37.0%  75.1 1206s
  1511   687     cutoff   50      -289.56999 -396.28230  36.9%  75.2 1235s
  1533   707 -324.68296   43    - -289.56999 -396.19438  36.8%  75.3 1253s
  1536   703     cutoff   24      -289.56999 -396.19100  36.8%  75.4 1265s
  1551   710     cutoff   27      -289.56999 -395.83000  36.7%  75.6 1284s
  1566   723     cutoff   48      -289.56999 -395.77232  36.7%  75.6 1297s
  1571   716 -332.93909   30    6 -289.56999 -395.70324  36.7%  75.6 1308s
  1599   729 -328.82504   33    3 -289.56999 -395.67261  36.6%  75.4 1339s
  1629   737 -324.98298   36    2 -289.56999 -395.53767  36.6%  75.2 1371s
  1649   758 -394.63304   12    8 -289.56999 -395.50489  36.6%  75.0 1401s
  1667   768 -391.51582   17    7 -289.56999 -395.50489  36.6%  74.8 1423s
  1682   777 -388.76860   22    5 -289.56999 -395.50489  36.6%  74.8 1447s
  1709   785 -355.54204   23    3 -289.56999 -395.50489  36.6%  74.9 1482s
  1731   800 -381.02798   28    5 -289.56999 -395.50489  36.6%  74.8 1502s
  1743   810 -340.81779   30    2 -289.56999 -395.50489  36.6%  74.9 1514s
  1754   821 -355.88770   35    2 -289.56999 -395.50489  36.6%  74.9 1520s
  1768   829 -292.51838   37    - -289.56999 -395.50489  36.6%  74.8 1534s
  1779   828 -291.52080   37    4 -289.56999 -395.50489  36.6%  75.0 1545s
  1799   837 -366.39854   45    5 -289.56999 -395.50489  36.6%  75.1 1576s
  1809   845     cutoff   50      -289.56999 -395.50489  36.6%  75.3 1580s
  1835   856 -322.90515   48    2 -289.56999 -394.90870  36.4%  74.9 1604s
  1869   868     cutoff   49      -289.56999 -394.54798  36.3%  74.7 1639s
  1888   882 -354.57611   12    2 -289.56999 -394.54798  36.3%  74.4 1645s
  1909   892 -349.78444   21    - -289.56999 -394.54798  36.3%  74.2 1679s
  1928   907 -311.98657   14    3 -289.56999 -394.54798  36.3%  74.1 1692s
  1949   908 -338.12374   32    - -289.56999 -394.48527  36.2%  74.0 1721s
  1984   926     cutoff   33      -289.56999 -394.45690  36.2%  73.6 1761s
  2011   927 -327.68661   43    3 -289.56999 -394.34638  36.2%  73.5 1790s
  2043   950     cutoff   47      -289.56999 -394.25201  36.2%  73.4 1833s
  2058   961 -355.32833   10    4 -289.56999 -394.15205  36.1%  73.4 1847s
  2092   986 -353.56801   19    - -289.56999 -394.15205  36.1%  72.9 1869s
  2097   973 -335.60022   33    2 -289.56999 -394.13739  36.1%  73.0 1881s
  2124   994 -324.81031   44    3 -289.56999 -394.10478  36.1%  72.8 1917s
  2145  1016 -339.27703   28    7 -289.56999 -394.10478  36.1%  72.6 1933s
  2154  1011     cutoff   48      -289.56999 -394.00180  36.1%  72.5 1954s
  2200  1046 -330.30419   37    7 -289.56999 -394.00180  36.1%  71.8 1986s
  2207  1031     cutoff   33      -289.56999 -393.93380  36.0%  71.7 2006s
  2257  1060 -328.89883   36    - -289.56999 -393.65576  35.9%  71.4 2061s
  2283  1086     cutoff   49      -289.56999 -393.54925  35.9%  71.4 2078s
  2306  1082 -327.64604   36    2 -289.56999 -393.54030  35.9%  71.2 2110s
  2334  1112 -347.22519   21    - -289.56999 -393.51865  35.9%  70.9 2130s
  2350  1115 -323.52803   41    2 -289.56999 -393.41093  35.9%  70.9 2156s
  2367  1135 -387.61684   20    - -289.56999 -393.41093  35.9%  70.8 2167s
  2372  1135 -321.40585   43    3 -289.56999 -393.40632  35.9%  70.8 2185s
  2391  1150 -352.08035   20    5 -289.56999 -393.40632  35.9%  70.8 2202s
  2397  1148 -304.85078   20    1 -289.56999 -393.40632  35.9%  70.9 2218s
  2414  1166 -377.98577   29    7 -289.56999 -393.40632  35.9%  71.0 2233s
  2420  1160     cutoff   23      -289.56999 -393.40632  35.9%  71.1 2250s
  2459  1173     cutoff   38      -289.56999 -393.35309  35.8%  70.8 2303s
  2493  1188 -327.95977   42    4 -289.56999 -393.32461  35.8%  70.8 2344s
  2554  1210     cutoff   49      -289.56999 -393.31877  35.8%  70.3 2407s
  2574  1235 -336.80400   33    - -289.56999 -393.30474  35.8%  70.3 2415s
  2624  1256 -333.96709   28    5 -289.56999 -393.21377  35.8%  69.6 2475s
  2646  1273     cutoff   40      -289.56999 -393.11635  35.8%  69.4 2484s
  2674  1310 -340.74042   28    9 -289.56999 -393.11635  35.8%  69.1 2642s
  2676  1311 -339.24960   25   27 -289.56999 -393.11635  35.8%  69.0 2797s
  2677  1312 -357.81077   11   27 -289.56999 -393.11635  35.8%  69.0 2806s
  2679  1316 -393.11635   10   26 -289.56999 -393.11635  35.8%  69.4 3009s
  2681  1318 -393.11635   11   27 -289.56999 -393.11635  35.8%  69.7 3048s
  2683  1319 -393.11635   11   18 -289.56999 -393.11635  35.8%  69.9 3152s
  2685  1320 -393.11635   12   26 -289.56999 -393.11635  35.8%  70.0 3261s
  2687  1320 -392.41642   12   15 -289.56999 -393.11635  35.8%  70.2 3332s
  2689  1323 -393.11635   13   28 -289.56999 -393.11635  35.8%  70.4 3496s
  2692  1323 -393.11635   13   16 -289.56999 -393.11635  35.8%  70.7 3573s
  2695  1321 -393.11635   14   27 -289.56999 -393.11635  35.8%  70.9 3609s
  2698  1326 -391.66551   14   11 -289.56999 -393.11635  35.8%  71.1 3653s
  2701  1327 -393.11635   15   29 -289.56999 -393.11635  35.8%  71.3 3700s
  2704  1331 -392.62403   15   19 -289.56999 -393.11635  35.8%  71.5 3756s
  2708  1331 -393.11635   16   28 -289.56999 -393.11635  35.8%  71.8 3821s
  2713  1334 -391.37087   16   16 -289.56999 -393.11635  35.8%  72.1 3861s
  2718  1337 -393.11635   17   28 -289.56999 -393.11635  35.8%  72.3 3906s
  2723  1342 -388.89134   17   12 -289.56999 -393.11635  35.8%  72.7 3940s
  2728  1343 -393.11635   18   27 -289.56999 -393.11635  35.8%  72.8 3978s
  2733  1345 -393.11635   19   26 -289.56999 -393.11635  35.8%  73.1 4014s
  2739  1351 -389.23711   19   14 -289.56999 -393.11635  35.8%  73.4 4054s
  2745  1347 -393.11635   20   25 -289.56999 -393.11635  35.8%  73.5 4092s
  2754  1357 -393.11635   21   24 -289.56999 -393.11635  35.8%  73.6 4142s
  2760  1354 -393.11635   22   23 -289.56999 -393.11635  35.8%  73.7 4174s
  2771  1357 -393.11635   23   22 -289.56999 -393.11635  35.8%  73.9 4208s
  2783  1360 -393.11635   24   20 -289.56999 -393.11635  35.8%  74.1 4258s
  2794  1357 -393.11635   25   19 -289.56999 -393.11635  35.8%  74.3 4304s
  2805  1365 -386.74460   26   12 -289.56999 -393.11635  35.8%  74.5 4365s
  2816  1372 -391.97769   27   17 -289.56999 -393.11635  35.8%  74.7 4417s
  2832  1376 -391.21797   28   16 -289.56999 -393.11635  35.8%  74.8 4472s
  2839  1384 -390.49929   29   12 -289.56999 -393.11635  35.8%  75.1 4517s
  2845  1387 -391.62366   30   12 -289.56999 -393.11635  35.8%  75.4 4567s
  2850  1388 -393.11635   32   19 -289.56999 -393.11635  35.8%  75.6 4621s
  2855  1392 -393.11635   33   19 -289.56999 -393.11635  35.8%  75.8 4689s
  2860  1397 -388.74684   34   11 -289.56999 -393.11635  35.8%  76.2 4733s
  2870  1400 -393.11635   36   17 -289.56999 -393.11635  35.8%  76.2 4781s
  2887  1405 -386.26984   37    3 -289.56999 -393.11635  35.8%  76.6 4835s
  2900  1417 -366.14073   39    - -289.56999 -393.11635  35.8%  76.8 4883s
  2909  1424 -393.11635   41   17 -289.56999 -393.11635  35.8%  77.2 4930s
  2922  1425 -393.11635   43   15 -289.56999 -393.11635  35.8%  77.5 4979s
  2937  1435 -350.67633   45    8 -289.56999 -393.11635  35.8%  77.9 5035s
  2959  1435 -382.37174   49    - -289.56999 -393.11635  35.8%  78.4 5106s
  2997  1431 -391.53122   54    5 -289.56999 -393.11635  35.8%  78.6 5187s
  3042  1451 -393.11635   17   14 -289.56999 -393.11635  35.8%  78.8 5271s
  3093  1458 -383.93869   31    - -289.56999 -393.11635  35.8%  79.0 5362s
  3148  1482 -343.66591   31    3 -289.56999 -393.11635  35.8%  78.7 5443s
  3220  1511 -328.51199   56    - -289.56999 -393.11635  35.8%  78.3 5547s
  3261  1519 -341.35708   42    4 -289.56999 -392.85202  35.7%  78.2 5583s
  3315  1518 -295.71102   55    3 -289.56999 -392.78589  35.6%  77.7 5675s
  3352  1547 -334.35964   49    3 -289.56999 -392.14497  35.4%  77.5 5697s
  3406  1548     cutoff   58      -289.56999 -392.13506  35.4%  76.9 5784s
  3429  1581 -386.57362   37   15 -289.56999 -392.11399  35.4%  77.0 5834s
  3463  1599 -376.54465   52    6 -289.56999 -391.95544  35.4%  76.9 5897s
  3490  1610 -338.64304   39    5 -289.56999 -391.62783  35.2%  77.0 5911s
  3520  1604     cutoff   59      -289.56999 -391.62294  35.2%  76.9 5990s
  3570  1621     cutoff   58      -289.56999 -391.50122  35.2%  76.8 6076s
  3613  1637 -377.45270   32    9 -289.56999 -391.48924  35.2%  76.9 6171s
  3668  1654 -365.64787   48    8 -289.56999 -391.32380  35.1%  76.8 6267s
  3694  1664 -330.74714   39    3 -289.56999 -391.28759  35.1%  76.9 6278s
  3749  1686     cutoff   59      -289.56999 -391.26512  35.1%  76.4 6365s
  3779  1705 -341.00767   45    3 -289.56999 -391.20884  35.1%  76.4 6375s
  3795  1707 -301.57689   33    - -289.56999 -391.20402  35.1%  76.5 6460s
  3866  1711 -335.32335   39   10 -289.56999 -391.18420  35.1%  76.2 6558s
  3910  1739 -313.40516   56    3 -289.56999 -391.15668  35.1%  76.1 6643s
  3945  1755 -383.97046   41    9 -289.56999 -391.00379  35.0%  76.0 6662s
  3970  1757     cutoff   57      -289.56999 -390.94092  35.0%  76.1 6752s
  4045  1768 -312.98675   23    4 -289.56999 -390.87683  35.0%  76.0 6886s
  4096  1800     cutoff   58      -289.56999 -390.72317  34.9%  75.9 6919s
  4133  1792 -353.19977   31    4 -289.56999 -390.56894  34.9%  75.8 7029s
  4212  1809 -340.43237   45    8 -289.56999 -390.35381  34.8%  75.5 7171s

Cutting planes:
  Lazy constraints: 162000

Explored 4287 nodes (326716 simplex iterations) in 7227.49 seconds
Thread count was 4 (of 4 available processors)

Solution count 6: -289.57 -272.56 -255.895 ... 5109.88

Time limit reached
Best objective -2.895699915159e+02, best bound -3.902314541349e+02, gap 34.7624%
